1648808100
1648827000
1649152800
1649169000
1649240100
1649258100
1649326800
1649343600
1649407500
1649423700
1649672100
1649690100
1649758500
1649774700
1649845800
1649860200
1649931300
1649946600
1650364200
1650379800
1650450000
1650464100
1650536100
1650550500
1650623400
1650638700
1650882600
1650897000
1650965400
1650979800
1651055400
1651072500
1651138200
1651154400
1651228200
1651238100
